BAYES
400
2 2 2 2 2 2 2 2 2 2 2 2 2 2 2 2 2 2 2 2 2 2 2 2 2 2 2 2 2 2 2 2 2 2 2 2 2 2 2 2 2 2 2 2 2 2 2 2 2 2 2 2 2 2 2 2 2 2 2 2 2 2 2 2 2 2 2 2 2 2 2 2 2 2 2 2 2 2 2 2 2 2 2 2 2 2 2 2 2 2 2 2 2 2 2 2 2 2 2 2 2 2 2 2 2 2 2 2 2 2 2 2 2 2 2 2 2 2 2 2 2 2 2 2 2 2 2 2 2 2 2 2 2 2 2 2 2 2 2 2 2 2 2 2 2 2 2 2 2 2 2 2 2 2 2 2 2 2 2 2 2 2 2 2 2 2 2 2 2 2 2 2 2 2 2 2 2 2 2 2 2 2 2 2 2 2 2 2 2 2 2 2 2 2 2 2 2 2 2 2 2 2 2 2 2 2 2 2 2 2 2 2 2 2 2 2 2 2 2 2 2 2 2 2 2 2 2 2 2 2 2 2 2 2 2 2 2 2 2 2 2 2 2 2 2 2 2 2 2 2 2 2 2 2 2 2 2 2 2 2 2 2 2 2 2 2 2 2 2 2 2 2 2 2 2 2 2 2 2 2 2 2 2 2 2 2 2 2 2 2 2 2 2 2 2 2 2 2 2 2 2 2 2 2 2 2 2 2 2 2 2 2 2 2 2 2 2 2 2 2 2 2 2 2 2 2 2 2 2 2 2 2 2 2 2 2 2 2 2 2 2 2 2 2 2 2 2 2 2 2 2 2 2 2 2 2 2 2 2 2 2 2 2 2 2 2 2 2 2 2 2 2 2 2 2 2 2 2 2 2 2 2 2 2 2 2 2 2 2 2 2 2 2 2 2 2 2 2 2 2
400
1 0
2 0 1
2 1 2
2 2 3
2 3 4
2 4 5
2 5 6
2 6 7
2 7 8
2 8 9
2 9 10
2 10 11
2 11 12
2 12 13
2 13 14
2 14 15
2 15 16
2 16 17
2 17 18
2 18 19
2 0 20
3 1 20 21
3 2 21 22
3 3 22 23
3 4 23 24
3 5 24 25
3 6 25 26
3 7 26 27
3 8 27 28
3 9 28 29
3 10 29 30
3 11 30 31
3 12 31 32
3 13 32 33
3 14 33 34
3 15 34 35
3 16 35 36
3 17 36 37
3 18 37 38
3 19 38 39
2 20 40
3 21 40 41
3 22 41 42
3 23 42 43
3 24 43 44
3 25 44 45
3 26 45 46
3 27 46 47
3 28 47 48
3 29 48 49
3 30 49 50
3 31 50 51
3 32 51 52
3 33 52 53
3 34 53 54
3 35 54 55
3 36 55 56
3 37 56 57
3 38 57 58
3 39 58 59
2 40 60
3 41 60 61
3 42 61 62
3 43 62 63
3 44 63 64
3 45 64 65
3 46 65 66
3 47 66 67
3 48 67 68
3 49 68 69
3 50 69 70
3 51 70 71
3 52 71 72
3 53 72 73
3 54 73 74
3 55 74 75
3 56 75 76
3 57 76 77
3 58 77 78
3 59 78 79
2 60 80
3 61 80 81
3 62 81 82
3 63 82 83
3 64 83 84
3 65 84 85
3 66 85 86
3 67 86 87
3 68 87 88
3 69 88 89
3 70 89 90
3 71 90 91
3 72 91 92
3 73 92 93
3 74 93 94
3 75 94 95
3 76 95 96
3 77 96 97
3 78 97 98
3 79 98 99
2 80 100
3 81 100 101
3 82 101 102
3 83 102 103
3 84 103 104
3 85 104 105
3 86 105 106
3 87 106 107
3 88 107 108
3 89 108 109
3 90 109 110
3 91 110 111
3 92 111 112
3 93 112 113
3 94 113 114
3 95 114 115
3 96 115 116
3 97 116 117
3 98 117 118
3 99 118 119
2 100 120
3 101 120 121
3 102 121 122
3 103 122 123
3 104 123 124
3 105 124 125
3 106 125 126
3 107 126 127
3 108 127 128
3 109 128 129
3 110 129 130
3 111 130 131
3 112 131 132
3 113 132 133
3 114 133 134
3 115 134 135
3 116 135 136
3 117 136 137
3 118 137 138
3 119 138 139
2 120 140
3 121 140 141
3 122 141 142
3 123 142 143
3 124 143 144
3 125 144 145
3 126 145 146
3 127 146 147
3 128 147 148
3 129 148 149
3 130 149 150
3 131 150 151
3 132 151 152
3 133 152 153
3 134 153 154
3 135 154 155
3 136 155 156
3 137 156 157
3 138 157 158
3 139 158 159
2 140 160
3 141 160 161
3 142 161 162
3 143 162 163
3 144 163 164
3 145 164 165
3 146 165 166
3 147 166 167
3 148 167 168
3 149 168 169
3 150 169 170
3 151 170 171
3 152 171 172
3 153 172 173
3 154 173 174
3 155 174 175
3 156 175 176
3 157 176 177
3 158 177 178
3 159 178 179
2 160 180
3 161 180 181
3 162 181 182
3 163 182 183
3 164 183 184
3 165 184 185
3 166 185 186
3 167 186 187
3 168 187 188
3 169 188 189
3 170 189 190
3 171 190 191
3 172 191 192
3 173 192 193
3 174 193 194
3 175 194 195
3 176 195 196
3 177 196 197
3 178 197 198
3 179 198 199
2 180 200
3 181 200 201
3 182 201 202
3 183 202 203
3 184 203 204
3 185 204 205
3 186 205 206
3 187 206 207
3 188 207 208
3 189 208 209
3 190 209 210
3 191 210 211
3 192 211 212
3 193 212 213
3 194 213 214
3 195 214 215
3 196 215 216
3 197 216 217
3 198 217 218
3 199 218 219
2 200 220
3 201 220 221
3 202 221 222
3 203 222 223
3 204 223 224
3 205 224 225
3 206 225 226
3 207 226 227
3 208 227 228
3 209 228 229
3 210 229 230
3 211 230 231
3 212 231 232
3 213 232 233
3 214 233 234
3 215 234 235
3 216 235 236
3 217 236 237
3 218 237 238
3 219 238 239
2 220 240
3 221 240 241
3 222 241 242
3 223 242 243
3 224 243 244
3 225 244 245
3 226 245 246
3 227 246 247
3 228 247 248
3 229 248 249
3 230 249 250
3 231 250 251
3 232 251 252
3 233 252 253
3 234 253 254
3 235 254 255
3 236 255 256
3 237 256 257
3 238 257 258
3 239 258 259
2 240 260
3 241 260 261
3 242 261 262
3 243 262 263
3 244 263 264
3 245 264 265
3 246 265 266
3 247 266 267
3 248 267 268
3 249 268 269
3 250 269 270
3 251 270 271
3 252 271 272
3 253 272 273
3 254 273 274
3 255 274 275
3 256 275 276
3 257 276 277
3 258 277 278
3 259 278 279
2 260 280
3 261 280 281
3 262 281 282
3 263 282 283
3 264 283 284
3 265 284 285
3 266 285 286
3 267 286 287
3 268 287 288
3 269 288 289
3 270 289 290
3 271 290 291
3 272 291 292
3 273 292 293
3 274 293 294
3 275 294 295
3 276 295 296
3 277 296 297
3 278 297 298
3 279 298 299
2 280 300
3 281 300 301
3 282 301 302
3 283 302 303
3 284 303 304
3 285 304 305
3 286 305 306
3 287 306 307
3 288 307 308
3 289 308 309
3 290 309 310
3 291 310 311
3 292 311 312
3 293 312 313
3 294 313 314
3 295 314 315
3 296 315 316
3 297 316 317
3 298 317 318
3 299 318 319
2 300 320
3 301 320 321
3 302 321 322
3 303 322 323
3 304 323 324
3 305 324 325
3 306 325 326
3 307 326 327
3 308 327 328
3 309 328 329
3 310 329 330
3 311 330 331
3 312 331 332
3 313 332 333
3 314 333 334
3 315 334 335
3 316 335 336
3 317 336 337
3 318 337 338
3 319 338 339
2 320 340
3 321 340 341
3 322 341 342
3 323 342 343
3 324 343 344
3 325 344 345
3 326 345 346
3 327 346 347
3 328 347 348
3 329 348 349
3 330 349 350
3 331 350 351
3 332 351 352
3 333 352 353
3 334 353 354
3 335 354 355
3 336 355 356
3 337 356 357
3 338 357 358
3 339 358 359
2 340 360
3 341 360 361
3 342 361 362
3 343 362 363
3 344 363 364
3 345 364 365
3 346 365 366
3 347 366 367
3 348 367 368
3 349 368 369
3 350 369 370
3 351 370 371
3 352 371 372
3 353 372 373
3 354 373 374
3 355 374 375
3 356 375 376
3 357 376 377
3 358 377 378
3 359 378 379
2 360 380
3 361 380 381
3 362 381 382
3 363 382 383
3 364 383 384
3 365 384 385
3 366 385 386
3 367 386 387
3 368 387 388
3 369 388 389
3 370 389 390
3 371 390 391
3 372 391 392
3 373 392 393
3 374 393 394
3 375 394 395
3 376 395 396
3 377 396 397
3 378 397 398
3 379 398 399

2
0.227084 0.772916
4
0.578612 0.421388 0.200454 0.799546
4
1.0 0.0 0.0 1.0
4
1.0 0.0 0.0 1.0
4
1.0 0.0 0.0 1.0
4
1.0 0.0 0.0 1.0
4
0.0 1.0 1.0 0.0
4
0.925758 0.0742417 0.213115 0.786885
4
0.0 1.0 1.0 0.0
4
1.0 0.0 0.0 1.0
4
0.0 1.0 1.0 0.0
4
0.0 1.0 1.0 0.0
4
1.0 0.0 0.0 1.0
4
1.0 0.0 0.0 1.0
4
0.0 1.0 1.0 0.0
4
1.0 0.0 0.0 1.0
4
1.0 0.0 0.0 1.0
4
1.0 0.0 0.0 1.0
4
0.133033 0.866967 0.677942 0.322058
4
0.193206 0.806794 0.496425 0.503575
4
0.0 1.0 1.0 0.0
8
0.0 1.0 0.0 1.0 0.0 1.0 1.0 0.0
8
0.0 1.0 1.0 0.0 1.0 0.0 1.0 0.0
8
0.696289 0.303711 0.14982 0.85018 0.0872305 0.91277 0.313338 0.686662
8
1.0 0.0 0.0 1.0 1.0 0.0 1.0 0.0
8
1.0 0.0 0.0 1.0 0.0 1.0 1.0 0.0
8
0.778723 0.221277 0.310442 0.689558 0.15257 0.84743 0.254272 0.745728
8
1.0 0.0 1.0 0.0 1.0 0.0 0.0 1.0
8
0.0 1.0 1.0 0.0 1.0 0.0 0.0 1.0
8
0.0 1.0 1.0 0.0 0.0 1.0 0.0 1.0
8
1.0 0.0 0.0 1.0 0.0 1.0 0.0 1.0
8
0.771098 0.228902 0.0683458 0.931654 0.632013 0.367987 0.053395 0.946605
8
1.0 0.0 0.0 1.0 1.0 0.0 1.0 0.0
8
0.0 1.0 0.0 1.0 1.0 0.0 0.0 1.0
8
0.0 1.0 0.0 1.0 0.0 1.0 1.0 0.0
8
0.514201 0.485799 0.833637 0.166363 0.178834 0.821166 0.0686086 0.931391
8
0.836578 0.163422 0.329098 0.670902 0.225027 0.774973 0.0033207 0.996679
8
1.0 0.0 1.0 0.0 1.0 0.0 0.0 1.0
8
0.316327 0.683673 0.314272 0.685728 0.659931 0.340069 0.822363 0.177637
8
0.0 1.0 0.0 1.0 1.0 0.0 1.0 0.0
4
1.0 0.0 0.0 1.0
8
1.0 0.0 0.0 1.0 1.0 0.0 1.0 0.0
8
1.0 0.0 1.0 0.0 0.0 1.0 1.0 0.0
8
0.286591 0.713409 0.762778 0.237222 0.950734 0.0492664 0.387374 0.612626
8
1.0 0.0 1.0 0.0 0.0 1.0 1.0 0.0
8
0.0 1.0 1.0 0.0 1.0 0.0 0.0 1.0
8
0.833916 0.166084 0.631825 0.368175 0.681256 0.318744 0.710742 0.289258
8
1.0 0.0 1.0 0.0 0.0 1.0 1.0 0.0
8
0.0 1.0 0.0 1.0 1.0 0.0 1.0 0.0
8
1.0 0.0 1.0 0.0 0.0 1.0 0.0 1.0
8
0.0 1.0 1.0 0.0 0.0 1.0 0.0 1.0
8
1.0 0.0 0.0 1.0 0.0 1.0 0.0 1.0
8
0.0 1.0 0.0 1.0 0.0 1.0 1.0 0.0
8
0.215509 0.784491 0.515643 0.484357 0.46449 0.53551 0.57619 0.42381
8
0.662311 0.337689 0.0259402 0.97406 0.108356 0.891644 0.429382 0.570618
8
1.0 0.0 0.0 1.0 0.0 1.0 1.0 0.0
8
1.0 0.0 1.0 0.0 0.0 1.0 0.0 1.0
8
0.473978 0.526022 0.565781 0.434219 0.612273 0.387727 0.759543 0.240457
8
0.0907084 0.909292 0.00305762 0.996942 0.844999 0.155001 0.200968 0.799032
8
0.612308 0.387692 0.416477 0.583523 0.443472 0.556528 0.0767978 0.923202
4
0.294032 0.705968 0.739109 0.260891
8
1.0 0.0 1.0 0.0 1.0 0.0 0.0 1.0
8
0.433634 0.566366 0.974243 0.0257572 0.411463 0.588537 0.656498 0.343502
8
1.0 0.0 1.0 0.0 0.0 1.0 0.0 1.0
8
0.0 1.0 1.0 0.0 0.0 1.0 1.0 0.0
8
0.0 1.0 0.0 1.0 1.0 0.0 1.0 0.0
8
0.12567 0.87433 0.874689 0.125311 0.274722 0.725278 0.864779 0.135221
8
0.677109 0.322891 0.0332705 0.96673 0.449158 0.550842 0.205105 0.794895
8
1.0 0.0 1.0 0.0 0.0 1.0 1.0 0.0
8
1.0 0.0 0.0 1.0 0.0 1.0 0.0 1.0
8
0.0307014 0.969299 0.0967382 0.903262 0.383696 0.616304 0.295279 0.704721
8
1.0 0.0 0.0 1.0 0.0 1.0 0.0 1.0
8
0.0 1.0 0.0 1.0 1.0 0.0 0.0 1.0
8
0.410833 0.589167 0.175868 0.824132 0.892853 0.107147 0.859991 0.140009
8
0.0 1.0 0.0 1.0 1.0 0.0 0.0 1.0
8
0.314946 0.685054 0.103836 0.896164 0.940813 0.0591873 0.171778 0.828222
8
0.0 1.0 1.0 0.0 0.0 1.0 1.0 0.0
8
1.0 0.0 0.0 1.0 0.0 1.0 0.0 1.0
8
0.864492 0.135508 0.800838 0.199162 0.418969 0.581031 0.36325 0.63675
8
1.0 0.0 1.0 0.0 1.0 0.0 0.0 1.0
4
0.74269 0.25731 0.889966 0.110034
8
0.202909 0.797091 0.841782 0.158218 0.254748 0.745252 0.306745 0.693255
8
0.426526 0.573474 0.900986 0.0990139 0.515538 0.484462 0.629006 0.370994
8
0.0 1.0 1.0 0.0 0.0 1.0 0.0 1.0
8
0.0 1.0 0.0 1.0 0.0 1.0 1.0 0.0
8
1.0 0.0 0.0 1.0 1.0 0.0 0.0 1.0
8
1.0 0.0 0.0 1.0 0.0 1.0 0.0 1.0
8
1.0 0.0 0.0 1.0 1.0 0.0 1.0 0.0
8
0.0 1.0 1.0 0.0 0.0 1.0 1.0 0.0
8
1.0 0.0 1.0 0.0 0.0 1.0 1.0 0.0
8
1.0 0.0 0.0 1.0 1.0 0.0 1.0 0.0
8
1.0 0.0 0.0 1.0 1.0 0.0 0.0 1.0
8
0.0 1.0 1.0 0.0 1.0 0.0 0.0 1.0
8
0.0 1.0 0.0 1.0 0.0 1.0 1.0 0.0
8
1.0 0.0 1.0 0.0 0.0 1.0 1.0 0.0
8
0.0891264 0.910874 0.0210651 0.978935 0.786826 0.213174 0.782453 0.217547
8
0.0 1.0 0.0 1.0 0.0 1.0 1.0 0.0
8
1.0 0.0 0.0 1.0 0.0 1.0 0.0 1.0
8
0.904551 0.0954487 0.752247 0.247753 0.159938 0.840062 0.736656 0.263344
8
0.0 1.0 1.0 0.0 0.0 1.0 1.0 0.0
4
1.0 0.0 0.0 1.0
8
0.0 1.0 0.0 1.0 1.0 0.0 0.0 1.0
8
0.477325 0.522675 0.919027 0.0809726 0.623084 0.376916 0.622406 0.377594
8
1.0 0.0 0.0 1.0 0.0 1.0 1.0 0.0
8
0.0 1.0 0.0 1.0 1.0 0.0 1.0 0.0
8
0.670494 0.329506 0.405997 0.594003 0.649798 0.350202 0.240442 0.759558
8
0.333871 0.666129 0.884372 0.115628 0.158833 0.841167 0.922453 0.077547
8
1.0 0.0 0.0 1.0 1.0 0.0 1.0 0.0
8
1.0 0.0 1.0 0.0 0.0 1.0 0.0 1.0
8
1.0 0.0 1.0 0.0 1.0 0.0 0.0 1.0
8
0.0 1.0 1.0 0.0 1.0 0.0 1.0 0.0
8
1.0 0.0 1.0 0.0 0.0 1.0 1.0 0.0
8
1.0 0.0 0.0 1.0 1.0 0.0 0.0 1.0
8
0.0 1.0 1.0 0.0 1.0 0.0 1.0 0.0
8
1.0 0.0 1.0 0.0 1.0 0.0 0.0 1.0
8
0.0 1.0 1.0 0.0 0.0 1.0 0.0 1.0
8
0.0673066 0.932693 0.200847 0.799153 0.0728643 0.927136 0.512585 0.487415
8
1.0 0.0 0.0 1.0 1.0 0.0 0.0 1.0
8
0.0 1.0 1.0 0.0 1.0 0.0 1.0 0.0
8
0.0 1.0 0.0 1.0 1.0 0.0 1.0 0.0
4
0.0 1.0 1.0 0.0
8
1.0 0.0 1.0 0.0 1.0 0.0 0.0 1.0
8
0.0339191 0.966081 0.832988 0.167012 0.729718 0.270282 0.935001 0.064999
8
0.930566 0.0694342 0.00786534 0.992135 0.412879 0.587121 0.193372 0.806628
8
1.0 0.0 0.0 1.0 1.0 0.0 0.0 1.0
8
0.0 1.0 1.0 0.0 0.0 1.0 0.0 1.0
8
0.0 1.0 0.0 1.0 1.0 0.0 0.0 1.0
8
1.0 0.0 1.0 0.0 0.0 1.0 1.0 0.0
8
0.0 1.0 1.0 0.0 0.0 1.0 0.0 1.0
8
0.0 1.0 1.0 0.0 0.0 1.0 1.0 0.0
8
1.0 0.0 0.0 1.0 1.0 0.0 1.0 0.0
8
1.0 0.0 1.0 0.0 1.0 0.0 0.0 1.0
8
0.0 1.0 0.0 1.0 1.0 0.0 0.0 1.0
8
0.0 1.0 1.0 0.0 1.0 0.0 0.0 1.0
8
1.0 0.0 0.0 1.0 1.0 0.0 1.0 0.0
8
1.0 0.0 1.0 0.0 0.0 1.0 1.0 0.0
8
0.0 1.0 1.0 0.0 0.0 1.0 1.0 0.0
8
1.0 0.0 0.0 1.0 1.0 0.0 1.0 0.0
8
0.0 1.0 1.0 0.0 0.0 1.0 1.0 0.0
8
0.0 1.0 1.0 0.0 0.0 1.0 0.0 1.0
4
0.0227102 0.97729 0.388935 0.611065
8
1.0 0.0 0.0 1.0 0.0 1.0 0.0 1.0
8
0.0 1.0 1.0 0.0 1.0 0.0 0.0 1.0
8
0.0 1.0 1.0 0.0 1.0 0.0 1.0 0.0
8
0.417999 0.582001 0.700873 0.299127 0.419301 0.580699 0.531858 0.468142
8
0.0 1.0 1.0 0.0 0.0 1.0 1.0 0.0
8
0.214133 0.785867 0.238733 0.761267 0.732287 0.267713 0.236843 0.763157
8
1.0 0.0 1.0 0.0 0.0 1.0 1.0 0.0
8
0.41398 0.58602 0.84697 0.15303 0.218529 0.781471 0.807126 0.192874
8
0.448132 0.551868 0.751603 0.248397 0.0072789 0.992721 0.21198 0.78802
8
1.0 0.0 1.0 0.0 0.0 1.0 1.0 0.0
8
0.0 1.0 0.0 1.0 1.0 0.0 0.0 1.0
8
1.0 0.0 1.0 0.0 0.0 1.0 1.0 0.0
8
0.0 1.0 0.0 1.0 1.0 0.0 0.0 1.0
8
0.0 1.0 1.0 0.0 0.0 1.0 1.0 0.0
8
1.0 0.0 1.0 0.0 0.0 1.0 1.0 0.0
8
0.449885 0.550115 0.4002 0.5998 0.456552 0.543448 0.761873 0.238127
8
0.0 1.0 0.0 1.0 0.0 1.0 1.0 0.0
8
1.0 0.0 0.0 1.0 0.0 1.0 1.0 0.0
8
1.0 0.0 1.0 0.0 1.0 0.0 0.0 1.0
4
0.0 1.0 1.0 0.0
8
0.476197 0.523803 0.695552 0.304448 0.985974 0.0140265 0.563364 0.436636
8
1.0 0.0 1.0 0.0 0.0 1.0 1.0 0.0
8
0.159941 0.840059 0.883691 0.116309 0.613893 0.386107 0.843909 0.156091
8
0.0 1.0 1.0 0.0 0.0 1.0 1.0 0.0
8
0.568153 0.431847 0.578984 0.421016 0.0736641 0.926336 0.690099 0.309901
8
0.0 1.0 0.0 1.0 1.0 0.0 1.0 0.0
8
0.0 1.0 1.0 0.0 1.0 0.0 1.0 0.0
8
0.0 1.0 0.0 1.0 0.0 1.0 1.0 0.0
8
1.0 0.0 0.0 1.0 1.0 0.0 1.0 0.0
8
0.4416 0.5584 0.443411 0.556589 0.135093 0.864907 0.857843 0.142157
8
0.0 1.0 0.0 1.0 1.0 0.0 1.0 0.0
8
0.0 1.0 1.0 0.0 0.0 1.0 1.0 0.0
8
1.0 0.0 0.0 1.0 1.0 0.0 0.0 1.0
8
0.818623 0.181377 0.503388 0.496612 0.481255 0.518745 0.86023 0.13977
8
1.0 0.0 1.0 0.0 1.0 0.0 0.0 1.0
8
0.0 1.0 1.0 0.0 0.0 1.0 0.0 1.0
8
0.0 1.0 1.0 0.0 1.0 0.0 1.0 0.0
8
1.0 0.0 0.0 1.0 0.0 1.0 0.0 1.0
8
1.0 0.0 0.0 1.0 1.0 0.0 1.0 0.0
4
1.0 0.0 0.0 1.0
8
0.0432396 0.95676 0.104429 0.895571 0.239579 0.760421 0.580322 0.419678
8
0.711512 0.288488 0.0569233 0.943077 0.119665 0.880335 0.0915978 0.908402
8
0.824455 0.175545 0.606776 0.393224 0.751168 0.248832 0.158866 0.841134
8
1.0 0.0 1.0 0.0 0.0 1.0 1.0 0.0
8
0.931305 0.0686952 0.802746 0.197254 0.689535 0.310465 0.177732 0.822268
8
0.398954 0.601046 0.603308 0.396692 0.100923 0.899077 0.960938 0.0390615
8
0.932812 0.0671878 0.00417811 0.995822 0.951937 0.0480633 0.172391 0.827609
8
1.0 0.0 1.0 0.0 0.0 1.0 1.0 0.0
8
0.616548 0.383452 0.754344 0.245656 0.582278 0.417722 0.367715 0.632285
8
0.72994 0.27006 0.320923 0.679077 0.615094 0.384906 0.517859 0.482141
8
0.0 1.0 0.0 1.0 1.0 0.0 1.0 0.0
8
1.0 0.0 1.0 0.0 1.0 0.0 0.0 1.0
8
1.0 0.0 1.0 0.0 0.0 1.0 1.0 0.0
8
0.0 1.0 0.0 1.0 1.0 0.0 0.0 1.0
8
0.232964 0.767036 0.315732 0.684268 0.524103 0.475897 0.815242 0.184758
8
0.0 1.0 0.0 1.0 1.0 0.0 0.0 1.0
8
0.0 1.0 1.0 0.0 0.0 1.0 0.0 1.0
8
1.0 0.0 1.0 0.0 1.0 0.0 0.0 1.0
8
1.0 0.0 1.0 0.0 0.0 1.0 1.0 0.0
4
1.0 0.0 0.0 1.0
8
1.0 0.0 0.0 1.0 1.0 0.0 1.0 0.0
8
0.0 1.0 1.0 0.0 1.0 0.0 1.0 0.0
8
1.0 0.0 0.0 1.0 0.0 1.0 0.0 1.0
8
0.0 1.0 0.0 1.0 1.0 0.0 1.0 0.0
8
1.0 0.0 1.0 0.0 0.0 1.0 0.0 1.0
8
0.0 1.0 0.0 1.0 1.0 0.0 0.0 1.0
8
0.17686 0.82314 0.85743 0.14257 0.711229 0.288771 0.26315 0.73685
8
1.0 0.0 0.0 1.0 0.0 1.0 0.0 1.0
8
0.510872 0.489128 0.395742 0.604258 0.021365 0.978635 0.426927 0.573073
8
0.593541 0.406459 0.855185 0.144815 0.165127 0.834873 0.746971 0.253029
8
0.0 1.0 1.0 0.0 1.0 0.0 1.0 0.0
8
0.742871 0.257129 0.267394 0.732606 0.624145 0.375855 0.603201 0.396799
8
0.54669 0.45331 0.780062 0.219938 0.722627 0.277373 0.257919 0.742081
8
1.0 0.0 1.0 0.0 0.0 1.0 1.0 0.0
8
0.0 1.0 0.0 1.0 1.0 0.0 0.0 1.0
8
0.0 1.0 1.0 0.0 1.0 0.0 1.0 0.0
8
0.0 1.0 1.0 0.0 1.0 0.0 1.0 0.0
8
1.0 0.0 1.0 0.0 0.0 1.0 1.0 0.0
8
1.0 0.0 0.0 1.0 1.0 0.0 1.0 0.0
4
0.0 1.0 1.0 0.0
8
1.0 0.0 0.0 1.0 0.0 1.0 0.0 1.0
8
1.0 0.0 0.0 1.0 0.0 1.0 1.0 0.0
8
1.0 0.0 0.0 1.0 1.0 0.0 0.0 1.0
8
0.93119 0.0688103 0.741835 0.258165 0.239271 0.760729 0.911971 0.0880295
8
0.905698 0.0943023 0.516896 0.483104 0.441242 0.558758 0.43732 0.56268
8
0.0 1.0 1.0 0.0 1.0 0.0 1.0 0.0
8
1.0 0.0 0.0 1.0 0.0 1.0 0.0 1.0
8
0.0565728 0.943427 0.341739 0.658261 0.0447085 0.955291 0.598199 0.401801
8
0.157671 0.842329 0.339708 0.660292 0.268916 0.731084 0.99791 0.00208978
8
1.0 0.0 0.0 1.0 0.0 1.0 0.0 1.0
8
0.0 1.0 0.0 1.0 0.0 1.0 1.0 0.0
8
0.0 1.0 0.0 1.0 1.0 0.0 0.0 1.0
8
1.0 0.0 0.0 1.0 0.0 1.0 1.0 0.0
8
0.0 1.0 0.0 1.0 0.0 1.0 1.0 0.0
8
0.914816 0.0851842 0.885459 0.114541 0.162584 0.837416 0.183732 0.816268
8
0.433483 0.566517 0.194484 0.805516 0.120551 0.879449 0.616351 0.383649
8
0.26343 0.73657 0.316116 0.683884 0.237106 0.762894 0.84363 0.15637
8
0.0 1.0 1.0 0.0 0.0 1.0 1.0 0.0
8
1.0 0.0 0.0 1.0 1.0 0.0 1.0 0.0
4
1.0 0.0 0.0 1.0
8
0.0 1.0 1.0 0.0 0.0 1.0 1.0 0.0
8
1.0 0.0 0.0 1.0 0.0 1.0 1.0 0.0
8
0.88805 0.11195 0.167212 0.832788 0.441691 0.558309 0.883223 0.116777
8
1.0 0.0 0.0 1.0 0.0 1.0 1.0 0.0
8
1.0 0.0 0.0 1.0 0.0 1.0 0.0 1.0
8
0.0 1.0 1.0 0.0 0.0 1.0 0.0 1.0
8
0.0 1.0 1.0 0.0 0.0 1.0 0.0 1.0
8
0.0 1.0 1.0 0.0 0.0 1.0 0.0 1.0
8
0.0 1.0 1.0 0.0 1.0 0.0 1.0 0.0
8
1.0 0.0 0.0 1.0 0.0 1.0 1.0 0.0
8
0.241565 0.758435 0.877693 0.122307 0.548159 0.451841 0.526909 0.473091
8
1.0 0.0 1.0 0.0 1.0 0.0 0.0 1.0
8
1.0 0.0 0.0 1.0 1.0 0.0 0.0 1.0
8
1.0 0.0 1.0 0.0 1.0 0.0 0.0 1.0
8
0.0 1.0 1.0 0.0 1.0 0.0 1.0 0.0
8
0.0 1.0 1.0 0.0 1.0 0.0 0.0 1.0
8
1.0 0.0 1.0 0.0 1.0 0.0 0.0 1.0
8
0.0 1.0 1.0 0.0 1.0 0.0 0.0 1.0
8
1.0 0.0 1.0 0.0 1.0 0.0 0.0 1.0
4
0.0 1.0 1.0 0.0
8
1.0 0.0 1.0 0.0 0.0 1.0 1.0 0.0
8
1.0 0.0 0.0 1.0 0.0 1.0 0.0 1.0
8
0.00283119 0.997169 0.917433 0.0825667 0.848195 0.151805 0.438064 0.561936
8
0.0 1.0 1.0 0.0 0.0 1.0 0.0 1.0
8
1.0 0.0 0.0 1.0 1.0 0.0 0.0 1.0
8
1.0 0.0 1.0 0.0 1.0 0.0 0.0 1.0
8
1.0 0.0 1.0 0.0 0.0 1.0 1.0 0.0
8
0.0 1.0 0.0 1.0 1.0 0.0 0.0 1.0
8
0.0 1.0 0.0 1.0 1.0 0.0 1.0 0.0
8
0.0 1.0 1.0 0.0 1.0 0.0 0.0 1.0
8
0.0 1.0 0.0 1.0 1.0 0.0 0.0 1.0
8
0.0 1.0 1.0 0.0 1.0 0.0 0.0 1.0
8
0.0 1.0 1.0 0.0 1.0 0.0 0.0 1.0
8
1.0 0.0 0.0 1.0 1.0 0.0 0.0 1.0
8
0.0195586 0.980441 0.569997 0.430003 0.810917 0.189083 0.0119882 0.988012
8
0.245602 0.754398 0.404949 0.595051 0.109267 0.890733 0.101742 0.898258
8
0.0 1.0 1.0 0.0 0.0 1.0 1.0 0.0
8
0.697102 0.302898 0.373168 0.626832 0.940113 0.0598866 0.86072 0.13928
8
0.200173 0.799827 0.395218 0.604782 0.259978 0.740022 0.0238678 0.976132
4
0.805445 0.194555 0.325071 0.674929
8
0.0 1.0 0.0 1.0 1.0 0.0 0.0 1.0
8
0.21049 0.78951 0.781554 0.218446 0.883259 0.116741 0.456092 0.543908
8
1.0 0.0 0.0 1.0 1.0 0.0 1.0 0.0
8
1.0 0.0 0.0 1.0 0.0 1.0 1.0 0.0
8
0.0 1.0 0.0 1.0 0.0 1.0 1.0 0.0
8
1.0 0.0 0.0 1.0 0.0 1.0 0.0 1.0
8
1.0 0.0 1.0 0.0 0.0 1.0 0.0 1.0
8
0.0 1.0 0.0 1.0 0.0 1.0 1.0 0.0
8
0.0 1.0 1.0 0.0 0.0 1.0 0.0 1.0
8
0.0 1.0 0.0 1.0 1.0 0.0 1.0 0.0
8
0.0 1.0 1.0 0.0 1.0 0.0 0.0 1.0
8
1.0 0.0 0.0 1.0 0.0 1.0 0.0 1.0
8
1.0 0.0 1.0 0.0 1.0 0.0 0.0 1.0
8
1.0 0.0 1.0 0.0 0.0 1.0 1.0 0.0
8
0.961994 0.0380062 0.345953 0.654047 0.605413 0.394587 0.786403 0.213597
8
0.0 1.0 1.0 0.0 0.0 1.0 1.0 0.0
8
1.0 0.0 0.0 1.0 0.0 1.0 0.0 1.0
8
0.0 1.0 0.0 1.0 0.0 1.0 1.0 0.0
8
1.0 0.0 1.0 0.0 0.0 1.0 1.0 0.0
4
0.0119385 0.988061 0.205565 0.794435
8
0.0 1.0 0.0 1.0 1.0 0.0 0.0 1.0
8
1.0 0.0 0.0 1.0 1.0 0.0 0.0 1.0
8
0.0 1.0 0.0 1.0 0.0 1.0 1.0 0.0
8
0.0 1.0 1.0 0.0 0.0 1.0 1.0 0.0
8
0.0 1.0 1.0 0.0 0.0 1.0 0.0 1.0
8
1.0 0.0 0.0 1.0 1.0 0.0 1.0 0.0
8
1.0 0.0 0.0 1.0 0.0 1.0 0.0 1.0
8
0.0 1.0 1.0 0.0 0.0 1.0 1.0 0.0
8
0.803226 0.196774 0.262619 0.737381 0.49251 0.50749 0.922545 0.077455
8
0.720768 0.279232 0.744753 0.255247 0.125768 0.874232 0.346309 0.653691
8
1.0 0.0 0.0 1.0 1.0 0.0 1.0 0.0
8
1.0 0.0 0.0 1.0 0.0 1.0 0.0 1.0
8
0.0 1.0 0.0 1.0 1.0 0.0 0.0 1.0
8
1.0 0.0 0.0 1.0 0.0 1.0 0.0 1.0
8
1.0 0.0 0.0 1.0 1.0 0.0 1.0 0.0
8
0.0 1.0 0.0 1.0 1.0 0.0 0.0 1.0
8
0.0 1.0 1.0 0.0 0.0 1.0 1.0 0.0
8
0.0716608 0.928339 0.762546 0.237454 0.687542 0.312458 0.645072 0.354928
8
0.718482 0.281518 0.103847 0.896153 0.254203 0.745797 0.340127 0.659873
4
1.0 0.0 0.0 1.0
8
0.837862 0.162138 0.948652 0.0513477 0.433402 0.566598 0.500275 0.499725
8
1.0 0.0 1.0 0.0 1.0 0.0 0.0 1.0
8
1.0 0.0 1.0 0.0 0.0 1.0 0.0 1.0
8
1.0 0.0 0.0 1.0 1.0 0.0 1.0 0.0
8
0.0 1.0 1.0 0.0 0.0 1.0 1.0 0.0
8
1.0 0.0 0.0 1.0 0.0 1.0 0.0 1.0
8
0.8015 0.1985 0.0489958 0.951004 0.877244 0.122756 0.234902 0.765098
8
0.0 1.0 0.0 1.0 0.0 1.0 1.0 0.0
8
0.932408 0.067592 0.780885 0.219115 0.583808 0.416192 0.928376 0.0716238
8
0.0 1.0 1.0 0.0 0.0 1.0 1.0 0.0
8
0.0 1.0 1.0 0.0 1.0 0.0 1.0 0.0
8
0.0 1.0 0.0 1.0 1.0 0.0 0.0 1.0
8
1.0 0.0 0.0 1.0 0.0 1.0 1.0 0.0
8
0.418726 0.581274 0.420374 0.579626 0.0440436 0.955956 0.37757 0.62243
8
0.0 1.0 0.0 1.0 1.0 0.0 0.0 1.0
8
0.0 1.0 0.0 1.0 1.0 0.0 0.0 1.0
8
0.621619 0.378381 0.847448 0.152552 0.294172 0.705828 0.760292 0.239708
8
0.0 1.0 1.0 0.0 0.0 1.0 1.0 0.0
8
1.0 0.0 0.0 1.0 1.0 0.0 1.0 0.0
4
1.0 0.0 0.0 1.0
8
1.0 0.0 1.0 0.0 0.0 1.0 0.0 1.0
8
0.999575 0.000425222 0.199104 0.800896 0.339221 0.660779 0.00802714 0.991973
8
1.0 0.0 0.0 1.0 1.0 0.0 0.0 1.0
8
0.0 1.0 0.0 1.0 1.0 0.0 0.0 1.0
8
0.0 1.0 1.0 0.0 0.0 1.0 0.0 1.0
8
0.0 1.0 1.0 0.0 0.0 1.0 1.0 0.0
8
1.0 0.0 0.0 1.0 0.0 1.0 1.0 0.0
8
0.292153 0.707847 0.241668 0.758332 0.0295391 0.970461 0.631374 0.368626
8
1.0 0.0 0.0 1.0 1.0 0.0 0.0 1.0
8
0.0 1.0 1.0 0.0 1.0 0.0 0.0 1.0
8
0.0 1.0 0.0 1.0 1.0 0.0 0.0 1.0
8
0.0 1.0 0.0 1.0 1.0 0.0 0.0 1.0
8
0.788689 0.211311 0.157691 0.842309 0.326455 0.673545 0.0307821 0.969218
8
0.618608 0.381392 0.27245 0.72755 0.0176652 0.982335 0.249982 0.750018
8
0.0 1.0 1.0 0.0 0.0 1.0 0.0 1.0
8
1.0 0.0 0.0 1.0 1.0 0.0 1.0 0.0
8
1.0 0.0 1.0 0.0 1.0 0.0 0.0 1.0
8
0.0 1.0 0.0 1.0 1.0 0.0 0.0 1.0
8
0.0182144 0.981786 0.276966 0.723034 0.116285 0.883715 0.0489964 0.951004
4
0.0 1.0 1.0 0.0
8
0.0 1.0 0.0 1.0 1.0 0.0 0.0 1.0
8
1.0 0.0 1.0 0.0 1.0 0.0 0.0 1.0
8
1.0 0.0 1.0 0.0 1.0 0.0 0.0 1.0
8
0.0436829 0.956317 0.410987 0.589013 0.654012 0.345988 0.688416 0.311584
8
1.0 0.0 1.0 0.0 0.0 1.0 0.0 1.0
8
0.681301 0.318699 0.524926 0.475074 0.985152 0.0148476 0.946394 0.0536061
8
1.0 0.0 1.0 0.0 0.0 1.0 0.0 1.0
8
0.0 1.0 1.0 0.0 0.0 1.0 1.0 0.0
8
0.854934 0.145066 0.387424 0.612576 0.914845 0.0851551 0.295407 0.704593
8
0.893459 0.106541 0.339089 0.660911 0.233202 0.766798 0.54747 0.45253
8
1.0 0.0 0.0 1.0 0.0 1.0 1.0 0.0
8
1.0 0.0 0.0 1.0 0.0 1.0 0.0 1.0
8
1.0 0.0 1.0 0.0 1.0 0.0 0.0 1.0
8
0.0 1.0 0.0 1.0 1.0 0.0 1.0 0.0
8
0.0 1.0 0.0 1.0 0.0 1.0 1.0 0.0
8
0.0 1.0 0.0 1.0 1.0 0.0 0.0 1.0
8
0.473644 0.526356 0.529701 0.470299 0.781438 0.218562 0.396241 0.603759
8
0.0 1.0 0.0 1.0 1.0 0.0 0.0 1.0
8
0.0 1.0 1.0 0.0 0.0 1.0 0.0 1.0
4
1.0 0.0 0.0 1.0
8
1.0 0.0 1.0 0.0 1.0 0.0 0.0 1.0
8
0.0283794 0.971621 0.333856 0.666144 0.582239 0.417761 0.844329 0.155671
8
1.0 0.0 0.0 1.0 0.0 1.0 0.0 1.0
8
0.0 1.0 1.0 0.0 1.0 0.0 0.0 1.0
8
1.0 0.0 1.0 0.0 0.0 1.0 1.0 0.0
8
1.0 0.0 1.0 0.0 1.0 0.0 0.0 1.0
8
0.0 1.0 1.0 0.0 1.0 0.0 1.0 0.0
8
1.0 0.0 0.0 1.0 1.0 0.0 1.0 0.0
8
0.0 1.0 1.0 0.0 1.0 0.0 1.0 0.0
8
1.0 0.0 0.0 1.0 1.0 0.0 1.0 0.0
8
0.593113 0.406887 0.804019 0.195981 0.951256 0.0487443 0.203801 0.796199
8
1.0 0.0 1.0 0.0 0.0 1.0 1.0 0.0
8
0.0 1.0 1.0 0.0 1.0 0.0 1.0 0.0
8
0.0 1.0 0.0 1.0 1.0 0.0 1.0 0.0
8
0.0 1.0 0.0 1.0 0.0 1.0 1.0 0.0
8
0.0 1.0 0.0 1.0 1.0 0.0 1.0 0.0
8
0.0 1.0 1.0 0.0 0.0 1.0 0.0 1.0
8
1.0 0.0 0.0 1.0 1.0 0.0 1.0 0.0
8
1.0 0.0 0.0 1.0 1.0 0.0 0.0 1.0